NAME : rat99.tsp
TYPE : TOUR
DIMENSION : 99
TOUR_LENGTH : 1384.4536435388115
TOUR_SECTION
1
2
11
12
3
4
14
5
6
7
8
9
18
17
16
15
23
24
25
26
35
36
44
45
54
63
62
61
60
51
52
53
50
49
58
59
67
68
77
78
69
70
71
80
81
72
79
88
87
86
95
96
97
98
99
90
89
94
93
92
91
83
82
73
74
75
76
85
84
64
65
66
56
57
47
46
55
38
39
48
40
41
32
33
42
43
34
27
31
30
29
37
28
19
20
21
22
13
10
-1
